% Solution

%%%%%%%%%% Sudoku parameters %%%%%%%%%%
size = 9;

clue = [|
    0, 0, 0,   0, 0, 0,   0, 0, 0
  | 0, 0, 0,   0, 0, 0,   0, 0, 0
  | 0, 0, 0,   0, 0, 0,   0, 0, 0
  
  | 0, 0, 0,   0, 0, 0,   0, 0, 0
  | 0, 0, 0,   0, 0, 0,   0, 0, 0
  | 0, 0, 0,   0, 0, 0,   0, 0, 0
  
  | 0, 0, 0,   0, 0, 0,   0, 0, 0
  | 0, 0, 0,   0, 0, 0,   0, 0, 0
  | 0, 0, 0,   0, 0, 0,   0, 0, 0
  |];

%%%%%%%%%% Killer parameters %%%%%%%%%%

cage_count = 0;

cage_totals = [];

cage_cells = [];

%%%%%%%%%% Thermometer parameters %%%%%%%%%%

thermo_cells = [];

%%%%%%%% German Whispers parameters %%%%%%%%%

GW_cells = []; 

%%%%%%%% Partial Kropki parameters %%%%%%%%%

krp_cells_white = [
  ((r: 1, c: 1), (r: 1, c: 2)),
  ((r: 2, c: 1), (r: 3, c: 1)),
  ((r: 2, c: 4), (r: 2, c: 5)),
  ((r: 3, c: 4), (r: 4, c: 4)),
  ((r: 4, c: 2), (r: 4, c: 3)),
  ((r: 4, c: 8), (r: 4, c: 9)),
  ((r: 5, c: 2), (r: 6, c: 2)),
  ((r: 5, c: 7), (r: 6, c: 7)),
  ((r: 5, c: 8), (r: 5, c: 9)),
  ((r: 6, c: 3), (r: 6, c: 4)),
  ((r: 7, c: 1), (r: 8, c: 1)),
  ((r: 7, c: 2), (r: 8, c: 2)),
  ((r: 7, c: 5), (r: 8, c: 5)),
  ((r: 7, c: 6), (r: 7, c: 7)),
  ((r: 8, c: 6), (r: 8, c: 7)),
  ((r: 8, c: 7), (r: 9, c: 7)),
  ((r: 9, c: 8), (r: 9, c: 9))
];

krp_cells_black = [
  ((r: 1, c: 6), (r: 1, c: 7)),
  ((r: 3, c: 1), (r: 4, c: 1)),
  ((r: 3, c: 2), (r: 4, c: 2)),
  ((r: 3, c: 6), (r: 4, c: 6)),
  ((r: 4, c: 1), (r: 4, c: 2)),
  ((r: 5, c: 3), (r: 6, c: 3)),
  ((r: 5, c: 7), (r: 5, c: 8)),
  ((r: 6, c: 4), (r: 6, c: 5)),
  ((r: 8, c: 8), (r: 8, c: 9))
];

%%%%%%%% Full Kropki parameters %%%%%%%%%

full_kropki = true;

%%%%%%%% Knight parameters %%%%%%%%%

knight = false;
